Input: ticf-13crafb.prec25.dzn
============================================================
Total Runtime: 2.8262 seconds
Input parsing: 0.0010 seconds
Constraint building: 0.7210 seconds
MaxSAT solving: 1.6391 seconds
============================================================

Total variables: 223804
Total clauses: 471942
MaxSAT found with cost: 0
NO SOLUTION FOUND
